3 100 1445
7 5 6 5 7 8 8 2 3 5
2 1 1
5 1
3
6
0 40.0 50.0 0.0 0.0 0 240
2 25.0 85.0 10.0 20.0 0 191 37 0 0 0 0 0 1 0 0 0 0
3 22.0 75.0 10.0 30.0 0 199 69 0 0 1 0 0 0 0 0 0 0
4 22.0 85.0 10.0 10.0 0 190 76 0 1 0 0 1 1 0 1 0 0
5 20.0 80.0 10.0 40.0 141 171 10 0 0 0 0 0 1 1 0 0 1
6 20.0 85.0 10.0 20.0 0 189 15 0 0 0 0 0 1 0 0 0 0
7 18.0 75.0 10.0 20.0 95 125 56 0 0 0 0 0 1 0 0 0 0
8 15.0 75.0 10.0 20.0 0 194 13 1 1 0 0 0 0 0 0 0 0
9 15.0 80.0 10.0 10.0 91 121 40 0 1 0 0 0 0 0 0 0 0
10 10.0 35.0 10.0 20.0 91 121 10 0 0 0 0 0 1 0 0 0 0
11 10.0 40.0 10.0 30.0 119 149 75 0 0 1 0 1 1 0 0 0 0
12 8.0 40.0 10.0 40.0 59 89 76 0 0 0 0 0 1 0 0 0 0
13 8.0 45.0 10.0 20.0 0 197 66 0 0 0 0 0 0 0 0 1 0
14 5.0 35.0 10.0 10.0 142 172 29 0 1 0 1 1 0 0 0 0 1
15 5.0 45.0 10.0 10.0 0 194 91 0 1 0 0 0 0 1 0 1 0
16 2.0 40.0 10.0 20.0 58 88 94 0 0 0 0 0 1 0 0 0 0
17 0.0 40.0 10.0 20.0 0 188 95 0 0 1 0 0 0 0 0 0 0
18 0.0 45.0 10.0 20.0 149 179 37 0 0 0 0 0 0 0 1 0 0
19 44.0 5.0 10.0 20.0 0 184 58 1 0 0 0 0 1 0 0 0 0
20 42.0 10.0 10.0 40.0 0 189 60 0 1 0 0 1 0 0 0 0 0
21 42.0 15.0 10.0 10.0 0 194 31 0 0 1 0 0 0 1 0 0 0
22 40.0 5.0 10.0 10.0 0 185 6 1 0 0 0 0 1 0 1 0 0
23 40.0 15.0 10.0 40.0 92 122 36 0 0 0 0 1 0 0 0 0 0
24 38.0 5.0 10.0 30.0 65 95 37 1 0 0 1 0 1 0 0 1 0
25 38.0 15.0 10.0 10.0 0 194 83 0 0 0 0 0 1 0 0 0 0
26 35.0 5.0 10.0 20.0 154 184 77 1 0 1 0 0 0 1 0 1 0
27 95.0 30.0 10.0 30.0 0 171 73 1 0 1 0 0 0 0 0 0 1
28 95.0 35.0 10.0 20.0 62 92 54 0 0 0 0 0 1 0 0 0 1
29 92.0 30.0 10.0 10.0 0 174 41 0 0 0 0 0 0 0 0 0 1
30 90.0 35.0 10.0 10.0 0 177 7 0 0 0 0 0 0 0 1 0 0
31 88.0 30.0 10.0 10.0 74 104 57 0 0 0 0 0 1 0 0 0 0
32 88.0 35.0 10.0 20.0 0 179 5 0 1 0 0 0 1 0 1 0 0
33 87.0 30.0 10.0 10.0 0 178 37 1 1 0 1 0 1 0 0 0 0
34 85.0 25.0 10.0 10.0 51 81 83 0 0 0 0 0 0 0 0 0 1
35 85.0 35.0 10.0 30.0 0 182 29 0 0 0 0 0 0 0 0 1 0
36 67.0 85.0 10.0 20.0 139 169 60 0 1 1 1 0 0 0 0 1 1
37 65.0 85.0 10.0 40.0 43 73 34 0 0 0 0 1 0 1 0 0 1
38 65.0 82.0 10.0 10.0 0 189 79 0 0 0 0 0 0 0 0 1 0
39 62.0 80.0 10.0 30.0 75 105 2 0 0 0 0 1 0 0 0 0 0
40 60.0 80.0 10.0 10.0 37 67 74 1 0 0 0 0 1 0 1 0 0
41 60.0 85.0 10.0 30.0 85 115 89 1 1 0 0 0 0 1 0 0 0
42 58.0 75.0 10.0 20.0 92 122 53 1 0 0 1 0 0 1 1 0 0
43 55.0 80.0 10.0 10.0 33 63 88 0 0 0 0 0 1 0 0 0 0
44 55.0 85.0 10.0 20.0 0 191 80 0 0 0 0 0 0 0 1 0 0
45 55.0 82.0 10.0 10.0 64 94 90 0 0 0 1 0 0 0 0 0 0
46 20.0 82.0 10.0 10.0 37 67 25 0 0 0 0 1 0 0 0 0 1
47 18.0 80.0 10.0 10.0 0 192 2 1 0 1 0 1 0 1 1 0 0
48 2.0 45.0 10.0 10.0 0 191 30 0 0 0 1 0 0 0 0 0 0
49 42.0 5.0 10.0 10.0 0 184 8 1 0 0 0 0 1 0 0 1 0
50 42.0 12.0 10.0 10.0 104 134 24 0 1 1 1 0 0 0 1 0 1
51 72.0 35.0 10.0 30.0 0 194 90 0 0 0 0 0 1 0 0 0 0
52 55.0 20.0 10.0 19.0 0 196 57 0 1 1 0 0 1 0 1 0 1
53 25.0 30.0 10.0 3.0 0 205 74 0 0 1 0 0 0 0 1 0 0
54 20.0 50.0 10.0 5.0 91 121 43 0 0 1 1 0 0 0 0 0 0
55 55.0 60.0 10.0 16.0 0 211 53 0 1 0 0 0 0 0 0 0 0
56 30.0 60.0 10.0 16.0 140 170 48 0 0 1 0 0 0 0 0 0 0
57 50.0 35.0 10.0 19.0 130 160 79 0 0 0 1 0 0 1 0 0 0
58 30.0 25.0 10.0 23.0 0 203 97 1 1 0 1 0 0 0 0 0 1
59 15.0 10.0 10.0 20.0 152 182 44 0 0 0 0 0 0 0 1 0 0
60 10.0 20.0 10.0 19.0 0 187 47 1 1 0 0 0 0 0 0 0 0
61 15.0 60.0 10.0 17.0 0 203 38 0 0 0 0 1 0 0 0 0 0
62 45.0 65.0 10.0 9.0 0 214 52 1 0 0 1 1 0 1 0 1 0
63 65.0 35.0 10.0 3.0 52 82 84 0 0 0 0 0 0 0 0 1 1
64 65.0 20.0 10.0 6.0 0 190 40 1 0 0 0 1 0 0 0 0 0
65 45.0 30.0 10.0 17.0 53 83 61 0 0 0 0 0 0 1 0 0 0
66 35.0 40.0 10.0 16.0 11 41 83 0 0 1 0 0 0 0 1 0 0
67 41.0 37.0 10.0 16.0 133 163 48 1 0 0 0 0 0 0 0 1 0
68 64.0 42.0 10.0 9.0 70 100 23 0 0 0 0 0 0 0 0 1 0
69 40.0 60.0 10.0 21.0 144 174 68 1 0 1 0 0 0 0 0 0 1
70 31.0 52.0 10.0 27.0 41 71 94 0 1 0 1 0 0 0 0 0 0
71 35.0 69.0 10.0 23.0 180 210 18 1 0 0 0 0 1 0 0 0 0
72 65.0 55.0 10.0 14.0 0 204 73 0 1 0 0 0 0 0 0 0 0
73 63.0 65.0 10.0 8.0 0 202 83 1 0 1 0 0 0 0 0 0 0
74 2.0 60.0 10.0 5.0 0 190 60 1 0 0 0 0 0 0 0 0 0
75 20.0 20.0 10.0 8.0 141 171 14 0 0 0 1 1 0 0 0 0 1
76 5.0 5.0 10.0 16.0 0 172 32 0 1 0 0 0 0 0 0 1 0
77 60.0 12.0 10.0 31.0 75 105 89 0 0 0 1 1 0 1 0 1 0
78 23.0 3.0 10.0 7.0 150 180 13 0 0 0 1 0 0 0 1 1 0
79 8.0 56.0 10.0 27.0 90 120 83 0 0 0 0 1 0 0 1 0 0
80 6.0 68.0 10.0 30.0 89 119 73 0 1 0 0 0 0 0 0 0 1
81 47.0 47.0 10.0 13.0 192 222 2 0 0 1 1 0 1 0 0 0 0
82 49.0 58.0 10.0 10.0 0 217 27 0 0 0 0 0 0 1 0 1 0
83 27.0 43.0 10.0 9.0 0 215 87 0 0 0 0 0 1 0 0 0 0
84 37.0 31.0 10.0 14.0 0 210 82 0 0 0 0 1 0 0 0 1 1
85 57.0 29.0 10.0 18.0 96 126 48 0 0 0 0 0 0 1 0 0 0
86 63.0 23.0 10.0 2.0 0 194 29 0 0 0 0 0 0 0 0 1 0
87 21.0 24.0 10.0 28.0 0 197 26 0 0 0 0 0 1 0 0 0 1
88 12.0 24.0 10.0 13.0 90 120 36 0 1 0 0 0 1 1 0 0 1
89 24.0 58.0 10.0 19.0 67 97 35 0 0 1 0 1 1 0 0 0 0
90 67.0 5.0 10.0 25.0 0 177 95 1 0 0 0 0 1 0 0 0 0
91 37.0 47.0 10.0 6.0 0 225 10 0 1 1 0 1 1 0 0 0 1
92 49.0 42.0 10.0 13.0 0 217 2 0 0 0 0 1 0 1 0 0 0
93 53.0 43.0 10.0 14.0 14 44 4 0 1 0 0 0 1 0 0 0 1
94 61.0 52.0 10.0 3.0 178 208 11 0 0 0 0 1 0 1 0 0 0
95 57.0 48.0 10.0 23.0 0 212 2 0 0 0 0 0 0 1 0 0 1
96 56.0 37.0 10.0 6.0 0 209 73 0 0 0 0 0 0 0 1 0 0
97 55.0 54.0 10.0 26.0 0 214 28 0 1 0 0 0 0 1 0 0 0
98 4.0 18.0 10.0 35.0 0 181 50 0 0 0 1 0 0 0 0 1 0
99 26.0 52.0 10.0 9.0 0 215 52 1 0 0 0 1 0 0 0 0 0
100 26.0 35.0 10.0 15.0 77 107 63 0 0 0 1 0 1 0 0 0 1
101 31.0 67.0 10.0 3.0 180 210 29 0 0 0 0 1 0 1 1 0 1